
(set-logic ALL) 

(declare-datatype MyList ((Nil) (Cons (head Real) (tail MyList)) )) 
(declare-fun l0 () MyList) 
(declare-fun l1 () MyList) 
(declare-fun l2 () MyList) 
(declare-fun l3 () MyList) 
(declare-fun i0 () Real) 
(declare-fun i1 () Real) 
(assert (not (= l3 l0)) )
(assert (= l0 Nil) )
(assert (and (is-Cons Nil) (is-Nil Nil)) )
(assert (= l3 Nil) )
(assert (or (is-Cons l2) (= l0 l0) (is-Nil Nil) (is-Nil Nil)) )
(assert (and (= l3 l2) (= l3 l2) (= l3 Nil) (= l2 l0)) )
(assert (is-Cons Nil) )
(assert (= l0 Nil) )
(check-sat)
